c SAT Expression for N=3 queens
c Chess board has 9 positions
p cnf 9 34
1_1 1_2 1_3 0
-1_1 -1_2 0
-1_1 -1_3 0
-1_2 -1_3 0
2_1 2_2 2_3 0
-2_1 -2_2 0
-2_1 -2_3 0
-2_2 -2_3 0
3_1 3_2 3_3 0
-3_1 -3_2 0
-3_1 -3_3 0
-3_2 -3_3 0
1_1 2_1 3_1 0
-1_1 -2_1 0
-1_1 -3_1 0
-2_1 -3_1 0
1_2 2_2 3_2 0
-1_2 -2_2 0
-1_2 -3_2 0
-2_2 -3_2 0
1_3 2_3 3_3 0
-1_3 -2_3 0
-1_3 -3_3 0
-2_3 -3_3 0
-2_1 -3_2 0
-1_1 -2_2 0
-1_1 -3_3 0
-2_2 -3_3 0
-1_2 -2_3 0
-2_3 -3_2 0
-1_3 -2_2 0
-1_3 -3_1 0
-2_2 -3_1 0
-1_2 -2_1 0